(set-logic ALL)
(declare-fun var0 () String)
(assert (str.in_re var0 (re.++ (re.union (re.+ (str.to_re "000")) (re.+ (str.to_re "11"))) (re.++ (re.* (re.union (str.to_re "2") (str.to_re "33"))) (re.++ (re.union (re.+ (str.to_re "44")) (re.+ (str.to_re "5"))) (re.++ (re.* (re.+ (str.to_re "6"))) (re.++ (re.* (re.* (str.to_re "77"))) (re.++ (re.* (re.* (str.to_re "888"))) (re.++ (re.union (re.* (str.to_re "9")) (re.* (str.to_re "aaa"))) (re.++ (re.+ (re.+ (str.to_re "bb"))) (re.++ (re.union (re.+ (str.to_re "ccc")) (re.+ (str.to_re "ddd"))) (re.union (re.* (str.to_re "e")) (re.* (str.to_re "fff"))))))))))))))
(assert (<= 351 (str.len var0)))
(check-sat)